c Sudoku solution
p cnf 729 0
227 0
244 0
265 0
288 0
352 0
376 0
399 0
518 0
533 0
547 0
582 0
614 0
622 0
649 0
675 0
681 0
697 0
636 0
815 0
841 0
868 0
663 0
658 0
884 0
917 0
437 0
921 0
411 0
313 0
348 0
955 0
445 0
462 0
429 0
525 0
579 0
324 0
964 0
734 0
989 0
756 0
826 0
723 0
938 0
742 0
943 0
719 0
832 0
767 0
859 0
785 0
877 0
893 0
996 0
972 0
128 0
146 0
112 0
216 0
454 0
594 0
551 0
566 0
157 0
253 0
361 0
169 0
387 0
239 0
335 0
131 0
271 0
292 0
778 0
791 0
174 0
473 0
486 0
498 0
183 0
195 0
